W=9;
H=3;

MAX_TIME=17;
MAX_TRACKS=11;

TARGET=(2,9);

TRAINS=[(3,7,LEFT),(1,7,LEFT)];
DECOYS=[];

INIT_POS=[
(1,3,STRAIGHT_RL),
(1,7,STRAIGHT_RL),
(2,6,ROCK),
(2,9,STRAIGHT_RL),
(3,3,STRAIGHT_RL),
(3,7,STRAIGHT_RL),
];
TUNNEL_PAIRS=[
  (1, 1, RIGHT, 3, 6, RIGHT),
  (1, 6, RIGHT, 3, 1, RIGHT),
];

GATES=[];
ACTIVATIONS=[];

DSWITCHES=[];

STATIONS=[
  (1,3,1),
  (3,3,2),
];
